0 68 
1 66 
2 66 
3 66 
4 64 
5 62 
6 60 
7 61 
8 59 
9 59 
10 60 
11 58 
12 57 
13 56 
14 55 
15 53 
16 52 
17 51 
18 50 
19 48 
20 47 
21 46 
22 44 
23 44 
24 43 
25 41 
26 39 
27 36 
28 38 
29 38 
30 36 
31 34 
32 33 
33 35 
34 35 
35 34 
36 33 
37 30 
38 29 
39 29 
40 28 
41 28 
42 26 
43 25 
44 24 
45 23 
46 22 
47 21 
48 20 
49 19 
50 14 
51 16 
52 13 
53 11 
54 10 
55 10 
56 9 
57 9 
58 7 
59 4 
60 3 
61 5 
62 4 
63 3 
64 2 
65 0 
66 0 

